
Gurobi 10.0.1 (win64) logging started Sat Sep  9 01:38:36 2023

Set parameter LogFile to value "results-heuristic-start//log/BA_07_makespan.log"
Gurobi Optimizer version 10.0.1 build v10.0.1rc0 (win64)

CPU model: AMD Ryzen 7 3700X 8-Core Processor, instruction set [SSE2|AVX|AVX2]
Thread count: 8 physical cores, 16 logical processors, using up to 16 threads

Optimize a model with 134 rows, 118 columns and 477 nonzeros
Model fingerprint: 0xc9e46214
Variable types: 18 continuous, 100 integer (99 binary)
Coefficient statistics:
  Matrix range     [1e+00, 1e+06]
  Objective range  [1e+00, 1e+00]
  Bounds range     [1e+00, 1e+00]
  RHS range        [1e+00, 3e+06]

User MIP start produced solution with objective 507 (0.00s)
Loaded user MIP start with objective 507

Presolve removed 27 rows and 64 columns
Presolve time: 0.00s
Presolved: 107 rows, 54 columns, 430 nonzeros
Variable types: 18 continuous, 36 integer (35 binary)
Found heuristic solution: objective 506.0000000

Root relaxation: objective 2.900000e+01, 25 iterations, 0.00 seconds (0.00 work units)

    Nodes    |    Current Node    |     Objective Bounds      |     Work
 Expl Unexpl |  Obj  Depth IntInf | Incumbent    BestBd   Gap | It/Node Time

     0     0   29.00000    0    1  506.00000   29.00000  94.3%     -    0s
H    0     0                      49.0000000   29.00000  40.8%     -    0s
     0     0   29.00003    0    3   49.00000   29.00003  40.8%     -    0s
     0     0   29.35979    0    8   49.00000   29.35979  40.1%     -    0s
     0     0   30.00001    0    7   49.00000   30.00001  38.8%     -    0s
     0     0   31.00000    0    4   49.00000   31.00000  36.7%     -    0s
     0     0   31.00000    0    4   49.00000   31.00000  36.7%     -    0s
     0     0   31.00000    0    9   49.00000   31.00000  36.7%     -    0s
     0     0   31.00000    0    7   49.00000   31.00000  36.7%     -    0s
     0     0   31.00000    0    7   49.00000   31.00000  36.7%     -    0s
H    0     0                      47.0000000   31.00000  34.0%     -    0s
     0     0   31.00000    0    8   47.00000   31.00000  34.0%     -    0s
     0     0   31.00000    0    7   47.00000   31.00000  34.0%     -    0s
H    0     0                      45.0000000   31.00000  31.1%     -    0s
     0     0   31.00000    0   12   45.00000   31.00000  31.1%     -    0s
     0     0   31.08806    0   10   45.00000   31.08806  30.9%     -    0s
     0     0   31.08806    0   11   45.00000   31.08806  30.9%     -    0s
     0     0   31.08806    0   13   45.00000   31.08806  30.9%     -    0s
     0     0   31.08806    0   14   45.00000   31.08806  30.9%     -    0s
     0     0   31.08806    0   14   45.00000   31.08806  30.9%     -    0s
     0     0   31.08806    0   13   45.00000   31.08806  30.9%     -    0s
     0     1   31.25455    0   10   45.00000   31.25455  30.5%     -    0s

Cutting planes:
  Learned: 29
  Gomory: 1
  Implied bound: 4
  MIR: 26
  Flow cover: 15

Explored 789 nodes (1736 simplex iterations) in 0.09 seconds (0.03 work units)
Thread count was 16 (of 16 available processors)

Solution count 6: 45 45 47 ... 507

Optimal solution found (tolerance 1.00e-04)
Best objective 4.500000000000e+01, best bound 4.500000000000e+01, gap 0.0000%
Warning: constraint name "precedence between 0,2 to 0,0 if x_[j,l,h,z,i]=1" has a space
Warning: constraint name "precedence between 0,2 to 0,0 if x_[j,l,h,z,i]=1" has a space
Warning: default constraint names used to write mps file
